
Gurobi 9.5.1 (linux64) logging started Tue Jun  7 14:11:39 2022

Set parameter LogFile to value "../results/logs/log_ca-citeseer_3_50_2022_06_07_11_52.log"
Gurobi Optimizer version 9.5.1 build v9.5.1rc2 (linux64)
Thread count: 8 physical cores, 8 logical processors, using up to 8 threads
Optimize a model with 16987 rows, 454640 columns and 163125 nonzeros
Model fingerprint: 0x88cb0d1c
Variable types: 0 continuous, 454640 integer (454640 binary)
Coefficient statistics:
  Matrix range     [1e+00, 3e+00]
  Objective range  [1e+00, 1e+00]
  Bounds range     [1e+00, 1e+00]
  RHS range        [1e+00, 5e+01]
Found heuristic solution: objective 152966.00000
Presolve removed 9737 rows and 443674 columns
Presolve time: 0.26s
Presolved: 7250 rows, 10966 columns, 32223 nonzeros
Found heuristic solution: objective 153020.00000
Variable types: 0 continuous, 10966 integer (9879 binary)

Root relaxation: objective 1.537510e+05, 4753 iterations, 0.07 seconds (0.11 work units)

    Nodes    |    Current Node    |     Objective Bounds      |     Work
 Expl Unexpl |  Obj  Depth IntInf | Incumbent    BestBd   Gap | It/Node Time

     0     0 153750.973    0 1002 153020.000 153750.973  0.48%     -    0s
H    0     0                    153105.00000 153750.973  0.42%     -    0s
H    0     0                    153111.00000 153750.973  0.42%     -    0s
     0     0 153247.175    0  299 153111.000 153247.175  0.09%     -    0s
H    0     0                    153136.00000 153247.175  0.07%     -    0s
H    0     0                    153139.00000 153247.175  0.07%     -    0s
     0     0 153241.518    0  302 153139.000 153241.518  0.07%     -    0s
     0     0 153241.026    0  298 153139.000 153241.026  0.07%     -    0s
     0     0 153198.228    0  205 153139.000 153198.228  0.04%     -    0s
H    0     0                    153156.00000 153198.228  0.03%     -    0s
     0     0 153195.630    0  183 153156.000 153195.630  0.03%     -    0s
     0     0 153195.119    0  175 153156.000 153195.119  0.03%     -    0s
     0     0 153195.105    0  172 153156.000 153195.105  0.03%     -    1s
     0     0 153187.048    0   42 153156.000 153187.048  0.02%     -    1s
H    0     0                    153182.00000 153187.048  0.00%     -    1s
     0     0 153186.333    0   19 153182.000 153186.333  0.00%     -    1s
     0     0 153186.000    0   13 153182.000 153186.000  0.00%     -    1s
H    0     0                    153185.00000 153186.000  0.00%     -    1s
     0     0 153186.000    0    4 153185.000 153186.000  0.00%     -    1s
     0     0 153186.000    0   32 153185.000 153186.000  0.00%     -    1s
*    0     0               0    153186.00000 153186.000  0.00%     -    1s

Cutting planes:
  Gomory: 4
  Cover: 3
  Implied bound: 5
  Clique: 7
  MIR: 19
  Flow cover: 1
  GUB cover: 15
  Zero half: 2
  Mod-K: 1
  RLT: 3
  BQP: 1

Explored 1 nodes (6648 simplex iterations) in 1.43 seconds (1.04 work units)
Thread count was 8 (of 8 available processors)

Solution count 10: 153186 153185 153184 ... 153111

Optimal solution found (tolerance 0.00e+00)
Best objective 1.531860000000e+05, best bound 1.531860000000e+05, gap 0.0000%
